clingo version 5.5.2
Reading from ...nt/beegfs/home/jubruns/encoding/mif.lp ...
Solving...
Answer: 1
move(1,(1,6),(1,7),1) move(1,(1,7),(2,7),2) move(1,(2,7),(1,7),3) move(1,(1,7),(1,6),4) move(1,(1,6),(1,5),5) move(1,(1,5),(1,4),6) move(1,(1,4),(1,3),7) move(1,(1,3),(1,2),8) move(1,(1,2),(1,1),9) move(1,(1,1),(2,1),10) move(1,(2,1),(3,1),11) move(1,(3,1),(4,1),12) move(1,(4,1),(5,1),13) move(1,(5,1),(5,2),14) move(1,(5,2),(5,3),15) move(1,(5,3),(5,2),16) move(1,(5,2),(5,1),17) move(1,(5,1),(4,1),18) move(1,(4,1),(3,1),19) move(1,(3,1),(2,1),20) move(1,(2,1),(1,1),21) move(1,(1,1),(1,2),22) move(1,(1,2),(1,3),23) move(1,(1,3),(1,4),24) move(1,(1,4),(1,5),25) move(1,(1,5),(1,6),26) move(1,(1,6),(1,7),27) move(1,(1,7),(2,7),28) move(1,(2,7),(3,7),29) move(1,(3,7),(4,7),30) move(2,(1,4),(1,3),1) move(2,(1,3),(1,2),2) move(2,(1,2),(1,1),3) move(2,(1,1),(2,1),4) move(2,(2,1),(3,1),5) move(2,(3,1),(4,1),6) move(2,(4,1),(5,1),7) move(2,(5,1),(6,1),8) move(2,(6,1),(7,1),13) move(2,(7,1),(6,1),14) move(2,(6,1),(7,1),16) move(2,(7,1),(7,2),17) move(2,(7,2),(7,1),22) move(2,(7,1),(6,1),23) move(2,(6,1),(5,1),24) move(2,(5,1),(5,2),25) move(2,(5,2),(5,1),26) move(2,(5,1),(4,1),27) move(2,(4,1),(5,1),28) move(2,(5,1),(6,1),29) move(3,(6,7),(5,7),1) move(3,(5,7),(4,7),2) move(3,(4,7),(3,7),3) move(3,(3,7),(2,7),4) move(3,(2,7),(1,7),5) move(3,(1,7),(1,6),6) move(3,(1,6),(1,5),7) move(3,(1,5),(1,4),8) move(3,(1,4),(1,3),9) move(3,(1,3),(1,2),10) move(3,(1,2),(1,1),11) move(3,(1,1),(2,1),12) move(3,(2,1),(3,1),13) move(3,(3,1),(4,1),14) move(3,(4,1),(5,1),15) move(3,(5,1),(6,1),16) move(3,(6,1),(7,1),17) move(3,(7,1),(6,1),22) move(3,(6,1),(5,1),23) move(3,(5,1),(5,2),24) move(3,(5,2),(5,3),25) move(3,(5,3),(5,2),26) move(3,(5,2),(5,1),27) move(3,(5,1),(6,1),28) move(3,(6,1),(7,1),29) move(4,(7,2),(7,1),1) move(4,(7,1),(6,1),2) move(4,(6,1),(5,1),3) move(4,(5,1),(5,2),4) move(4,(5,2),(5,1),6) move(4,(5,1),(6,1),7) move(4,(6,1),(7,1),8) move(4,(7,1),(7,2),9) move(4,(7,2),(7,3),10) move(4,(7,3),(7,2),22) move(4,(7,2),(7,1),23) move(4,(7,1),(6,1),24) move(4,(6,1),(5,1),25) move(4,(5,1),(4,1),26) move(4,(4,1),(3,1),27) move(4,(3,1),(2,1),28) move(4,(2,1),(1,1),29) move(4,(1,1),(1,2),30) move(4,(1,2),(1,3),31) move(4,(1,3),(1,4),32) move(5,(5,4),(5,5),1) move(5,(5,5),(4,5),2) move(5,(4,5),(3,5),3) move(5,(3,5),(3,4),4) move(5,(3,4),(3,5),5) move(5,(3,5),(4,5),6) move(5,(4,5),(5,5),7) move(5,(5,5),(6,5),8) move(5,(6,5),(5,5),9) move(5,(5,5),(4,5),10) move(5,(4,5),(3,5),11) move(5,(3,5),(3,4),12) move(6,(3,4),(3,5),1) move(6,(3,5),(3,4),3) move(6,(3,4),(3,3),4) move(6,(3,3),(3,4),5) move(6,(3,4),(3,5),6) move(6,(3,5),(4,5),7) move(6,(4,5),(5,5),8) move(6,(5,5),(5,4),9) move(6,(5,4),(5,3),10) move(6,(5,3),(5,2),11) move(6,(5,2),(5,1),12) move(6,(5,1),(6,1),13) move(6,(6,1),(5,1),14) move(6,(5,1),(5,2),15) move(6,(5,2),(5,1),16) move(6,(5,1),(4,1),17) move(6,(4,1),(3,1),18) move(6,(3,1),(2,1),19) move(6,(2,1),(1,1),20) move(6,(1,1),(1,2),21) move(6,(1,2),(1,3),22) move(6,(1,3),(1,4),23) move(6,(1,4),(1,5),24) move(6,(1,5),(1,6),25) move(6,(1,6),(1,7),26) move(6,(1,7),(2,7),27) move(6,(2,7),(3,7),28) move(6,(3,7),(4,7),29) move(6,(4,7),(5,7),30) move(6,(5,7),(6,7),31) move(6,(6,7),(7,7),32)
SATISFIABLE

Models       : 1+
Calls        : 1
Time         : 58.730s (Solving: 58.56s 1st Model: 58.56s Unsat: 0.00s)
CPU Time     : 58.551s

Choices      : 3031177  (Domain: 3031177)
Conflicts    : 318601   (Analyzed: 318601)
Restarts     : 825      (Average: 386.18 Last: 177)
Model-Level  : 53.0    
Problems     : 1        (Average Length: 0.00 Splits: 0)
Lemmas       : 318601   (Deleted: 302825)
  Binary     : 374      (Ratio:   0.12%)
  Ternary    : 972      (Ratio:   0.31%)
  Conflict   : 318601   (Average Length:   47.9 Ratio: 100.00%) 
  Loop       : 0        (Average Length:    0.0 Ratio:   0.00%) 
  Other      : 0        (Average Length:    0.0 Ratio:   0.00%) 
Backjumps    : 318601   (Average:  9.50 Max:  99 Sum: 3025529)
  Executed   : 318601   (Average:  9.50 Max:  99 Sum: 3025529 Ratio: 100.00%)
  Bounded    : 0        (Average:  0.00 Max:   0 Sum:      0 Ratio:   0.00%)

Rules        : 87438    (Original: 44870)
  Choice     : 192     
  Heuristic  : 4394     (Original: 4442)
Atoms        : 35021    (Original: 20263 Auxiliary: 14758)
Bodies       : 54702    (Original: 27080)
  Count      : 132      (Original: 1369)
Equivalences : 16741    (Atom=Atom: 203 Body=Body: 210 Other: 16328)
Tight        : Yes
Variables    : 45378    (Eliminated:    0 Frozen: 7920)
Constraints  : 131686   (Binary:  80.4% Ternary:  15.2% Other:   4.5%)

